proyfinal/src/viki/013/andrea/andrea-localstore/experimentInOfficeAgust.take6/worker_6/e5f4695f-eb9f-48a6-91df-1a9b853b6e29.als.cnf.out
Reading from standard input... Use '--help' for help.
============================[ Problem Statistics ]=============================
|                                                                             |
|  Number of variables:         87638                                         |
|  Number of clauses:          161767                                         |
|  Parse time:                   0.04 s                                       |
|                                                                             |
============================[ Search Statistics ]==============================
| Conflicts |          ORIGINAL         |          LEARNT          | Progress |
|           |    Vars  Clauses Literals |    Limit  Clauses Lit/Cl |          |
===============================================================================
|       100 |   62251   104675   261589 |    38380      100      8 | 28.968 % |
|       250 |   62232   104642   261505 |    42218      247     63 | 28.990 % |
|       475 |   62232   104565   261327 |    46440      470    156 | 28.990 % |
|       812 |   62232   104565   261327 |    51084      807    121 | 28.990 % |
|      1318 |   43597   104487   261144 |    56193     1290    109 | 50.253 % |
|      2077 |   43597    50326   128409 |    61812     2027     78 | 50.253 % |
===============================================================================
restarts              : 15
conflicts             : 2751           (8179 /sec)
decisions             : 10479          (0.00 % random) (31157 /sec)
propagations          : 4354826        (12948113 /sec)
conflict literals     : 178620         (29.40 % deleted)
Memory used           : 27.12 MB
CPU time              : 0.336329 s

UNSATISFIABLE
